% Auto-generated by scripts/generate_dzn.py
% problem_type   = regex
% instance       = regex_33
% source_json    = instances_json/1_medium_blowup/regex_33.json
% blowup         = 4.636363636363637
% representation = NFA

mode = 1;

var_count = 21;
n_constraints = 2;
Q = 12;
S = 3;
q0 = [1, 1];
F = [{10}, {12}];
weights = [10, 9, 3, 1, 7, 10, 5, 2, 4, 2, 3, 10, 5, 3, 6, 4, 2, 1, 9, 2, 3];
d_dfa = array3d(1..2, 1..12, 1..3, [
  % k = 1
    0, 0, 0,
    0, 0, 0,
    0, 0, 0,
    0, 0, 0,
    0, 0, 0,
    0, 0, 0,
    0, 0, 0,
    0, 0, 0,
    0, 0, 0,
    0, 0, 0,
    0, 0, 0,
    0, 0, 0,

  % k = 2
    0, 0, 0,
    0, 0, 0,
    0, 0, 0,
    0, 0, 0,
    0, 0, 0,
    0, 0, 0,
    0, 0, 0,
    0, 0, 0,
    0, 0, 0,
    0, 0, 0,
    0, 0, 0,
    0, 0, 0
]);
d_nfa = array3d(1..2, 1..12, 1..3, [
  % k = 1
    {1}, {1}, {1, 2},
    {3}, {}, {},
    {4}, {4}, {4},
    {5}, {5}, {5},
    {6}, {6}, {6},
    {7}, {7}, {7},
    {8}, {8}, {8},
    {9}, {9}, {9},
    {10}, {10}, {10},
    {}, {}, {},
    {}, {}, {},
    {}, {}, {},

  % k = 2
    {2}, {1}, {1},
    {3}, {2}, {2},
    {4}, {3}, {3},
    {5}, {4}, {4},
    {6}, {5}, {5},
    {7}, {6}, {6},
    {8}, {7}, {7},
    {9}, {8}, {8},
    {10}, {9}, {9},
    {11}, {10}, {10},
    {12}, {11}, {11},
    {}, {12}, {12}
]);
